150 20
1
19 9 24 40 19 8 44 66 6 35 70 53 40 69 92 90 18 57 67 75 58 54 44 46 62 97 93 61 56 45 61 61 56 7 14 62 94 72 76 21 37 97 71 28 78 74 81 2 44 59 91 17 0 17 76 1 90 90 18 76 75 62 36 67 44 90 37 21 71 24 56 56 3 2 67 16 37 83 75 55 18 55 27 43 38 65 9 55 13 81 11 58 76 59 10 37 52 36 69 32 71 47 22 0 73 5 4 92 74 93 99 77 0 33 81 50 85 41 26 95 88 62 7 58 95 53 16 72 27 43 35 31 67 76 50 58 99 1 20 0 13 82 18 81 69 43 35 55 39 76
359 619 645 463 477 568 761 878 729 890 968 686 876 860 807 593 635 710 598 525
0 0 0 0 0 44 0 0 0 0 0 0 0 0 0 0 6 0 0 6 0 12 0 0 0 0 0 0 0 0 0 0 0 0 0 0 0 0 64 3 69 0 0 0 0 64 0 0 0 0 0 0 0 0 0 0 0 0 0 0 0 0 0 0 45 0 0 2 3 0 0 0 0 0 0 0 0 0 0 0 0 0 0 0 0 75 0 0 0 0 0 0 0 0 0 0 0 0 0 0 0 0 0 0 0 0 0 0 0 0 0 0 0 0 0 0 0 31 0 0 0 0 79 0 0 0 0 0 0 0 0 0 0 0 0 0 0 0 75 0 0 29 0 0 0 0 0 0 0 0
0 0 0 0 0 0 0 0 0 0 0 0 0 80 0 0 0 0 0 0 0 0 0 72 0 0 0 0 0 0 0 0 0 0 0 0 0 0 0 0 0 0 0 0 0 0 0 0 0 0 0 0 0 0 0 0 0 0 0 0 0 0 0 0 0 35 0 0 8 0 57 0 0 0 0 0 0 0 0 0 0 0 0 0 0 0 10 0 0 0 0 0 0 0 0 0 43 0 0 0 0 85 0 0 0 60 0 0 0 22 49 0 0 0 35 8 0 0 0 0 0 92 92 0 78 0 0 8 0 24 0 0 0 61 0 0 0 0 61 0 73 0 0 0 0 0 0 0 0 0
0 0 0 0 0 0 0 0 56 0 0 0 0 0 0 0 0 0 0 0 0 0 5 0 0 0 0 0 28 0 0 0 0 0 0 0 11 0 0 0 0 2 0 0 0 74 0 0 76 0 0 0 0 0 0 0 34 0 0 0 0 0 0 0 0 0 0 0 0 0 19 0 0 0 0 0 80 0 0 0 0 17 0 0 0 0 0 0 0 0 33 97 0 0 0 0 42 2 0 0 0 0 0 0 40 34 0 30 0 0 0 0 0 0 89 14 0 0 0 0 0 0 0 0 0 59 0 0 0 0 0 0 46 0 78 0 0 0 0 0 75 0 0 0 0 0 0 0 0 84
0 0 0 0 0 0 0 0 0 0 0 0 0 0 0 0 0 0 0 0 0 0 48 0 0 0 0 0 0 0 0 61 0 0 0 22 63 0 0 0 0 0 0 0 0 0 0 0 0 0 0 0 0 0 0 0 0 0 0 0 0 0 70 0 0 0 49 0 1 0 0 0 0 0 0 0 0 0 0 0 0 0 42 0 0 0 0 0 0 0 0 0 0 0 41 0 0 0 86 0 0 0 0 0 0 0 0 77 74 0 0 0 10 0 0 0 0 0 0 0 0 0 19 0 0 0 0 0 0 0 0 0 0 0 0 6 0 0 0 0 0 0 0 31 0 91 0 0 0 0
0 95 0 38 0 0 1 29 0 0 0 87 36 0 0 0 50 0 0 0 0 36 0 0 0 0 0 0 0 0 45 0 0 0 0 0 0 0 31 0 0 0 0 90 0 0 0 0 0 0 0 22 0 0 0 0 0 0 0 0 0 0 0 0 0 0 0 0 0 10 0 0 0 0 0 0 0 0 0 43 0 0 0 0 0 87 0 0 0 0 0 0 2 0 0 0 0 0 0 0 0 0 0 0 0 0 0 0 0 0 0 0 0 0 0 0 0 0 0 0 0 0 0 0 0 0 0 0 68 0 0 0 0 59 0 0 0 0 0 0 0 0 0 0 41 0 0 0 0 0
0 28 0 0 0 9 0 0 0 0 0 0 62 0 0 0 0 0 0 0 0 0 0 0 32 0 0 0 0 0 0 0 0 0 0 0 10 0 0 0 0 0 0 0 0 0 0 0 0 0 0 0 69 0 72 0 0 0 0 0 0 25 0 0 0 0 0 0 0 29 0 28 0 0 0 0 0 0 6 46 0 0 0 0 0 58 0 0 54 84 0 0 0 0 0 46 0 0 0 0 0 0 0 0 0 0 0 0 0 0 0 0 0 44 0 0 0 0 0 30 55 0 0 0 0 0 0 0 31 13 0 0 0 0 60 0 0 0 0 0 0 23 0 0 0 0 0 0 0 93
0 0 0 0 0 89 0 0 0 30 0 0 0 85 0 0 0 0 13 0 91 0 0 0 0 39 0 0 0 0 0 0 0 0 0 0 0 0 96 0 98 0 0 0 0 55 0 0 0 0 0 0 0 0 0 0 35 0 0 83 0 0 0 0 0 0 50 0 0 0 0 0 46 0 0 87 0 0 0 0 0 0 0 0 0 0 0 0 0 0 0 0 0 0 0 0 0 0 0 0 0 0 0 0 24 0 0 60 7 2 0 0 0 15 66 0 0 0 0 0 60 0 0 0 0 0 85 0 0 0 0 86 0 0 0 0 0 0 0 0 29 0 0 0 0 0 0 0 0 0
0 0 0 0 0 0 0 53 18 42 0 0 50 0 0 0 0 0 0 0 0 0 0 0 0 0 0 0 0 0 46 0 0 0 73 0 0 0 0 0 0 0 0 0 0 0 31 24 0 0 0 0 54 0 0 0 0 0 0 0 0 0 0 0 0 0 39 0 0 0 43 0 0 0 0 0 0 73 0 16 62 81 0 0 0 0 0 0 0 0 0 0 0 0 0 0 0 6 0 0 0 0 77 55 35 3 82 0 0 0 30 0 0 0 0 0 0 47 0 87 52 0 0 0 0 0 0 87 0 16 99 0 0 0 0 0 91 0 0 0 8 0 0 0 0 0 0 0 90 0
0 0 0 0 29 0 0 0 63 0 0 0 0 0 0 0 0 0 0 0 0 62 0 0 0 0 76 89 0 55 0 0 0 0 0 0 0 0 0 0 0 0 0 0 0 0 0 0 0 0 0 0 0 0 0 0 0 0 0 0 0 0 0 0 0 0 0 0 0 0 0 53 0 0 0 0 0 0 0 66 44 0 0 0 0 0 0 0 0 13 43 0 0 0 0 0 0 0 0 0 0 53 0 0 0 0 0 0 0 85 0 0 0 22 0 94 0 0 88 0 81 21 0 0 0 0 0 0 69 0 0 0 0 0 0 16 0 51 0 0 0 0 0 44 0 58 0 0 0 0
35 0 37 0 0 0 0 0 0 0 0 84 0 0 0 0 0 0 0 2 0 0 47 0 0 93 0 0 82 0 35 0 0 0 0 0 0 0 0 0 0 0 0 0 0 0 0 0 0 98 1 98 50 0 0 41 0 48 16 0 0 0 0 0 0 0 0 74 0 0 0 81 59 0 0 0 0 0 0 0 0 0 0 0 0 0 0 0 67 0 0 19 0 0 21 51 0 0 41 33 0 81 0 0 0 0 81 0 78 0 0 0 0 0 0 0 0 0 0 0 0 72 0 0 0 0 0 0 0 0 0 0 0 0 0 21 0 0 0 0 0 0 0 0 23 0 0 0 0 0
0 0 0 0 0 0 0 43 69 22 0 0 0 0 0 0 0 41 0 90 17 90 0 0 0 0 0 0 0 0 0 34 40 15 0 0 0 40 0 0 0 75 50 0 5 44 0 89 33 0 19 64 0 62 0 0 0 0 0 0 0 0 0 97 0 0 0 12 0 0 0 0 0 0 0 0 0 0 0 0 0 0 0 0 35 0 0 28 0 82 0 0 0 0 0 30 0 0 0 0 0 0 0 0 0 0 0 0 8 0 0 0 0 0 4 0 55 80 0 0 41 0 0 63 47 0 0 0 0 0 0 0 0 87 0 0 0 0 0 41 70 0 0 0 0 0 0 0 0 26
0 28 69 0 0 0 0 0 0 85 0 0 0 0 0 0 51 0 0 0 0 0 0 0 0 0 0 0 0 0 0 0 0 0 0 0 0 17 0 86 0 0 0 0 0 0 0 0 0 0 0 0 0 75 0 0 0 75 0 0 0 0 0 29 0 0 46 0 0 8 0 0 0 0 0 18 66 0 0 0 0 45 79 0 0 0 0 0 0 0 0 19 0 0 0 77 0 0 0 0 0 0 0 0 89 14 0 24 0 0 0 0 0 0 88 0 0 0 0 0 0 0 0 0 0 0 0 0 0 0 0 66 0 0 0 0 0 0 0 0 0 31 0 0 0 0 0 0 0 0
0 0 0 0 69 0 23 0 0 0 0 0 0 0 0 0 0 0 0 59 0 0 0 0 0 0 0 0 0 0 0 0 0 0 0 0 0 0 0 0 0 0 0 33 53 89 0 0 0 86 0 0 39 0 0 90 0 0 72 0 0 25 0 0 0 0 0 0 0 0 0 53 0 84 0 0 0 0 0 0 99 0 0 0 0 0 0 0 0 0 0 0 0 0 0 0 0 45 0 0 0 0 0 0 97 0 0 0 0 47 0 28 0 86 0 0 0 0 0 0 10 0 46 34 0 0 0 0 0 0 0 0 0 0 0 0 0 0 0 0 36 0 94 0 0 0 0 94 70 0
0 0 0 75 0 0 0 0 0 0 0 0 0 0 0 0 0 0 92 0 93 78 0 0 0 0 21 0 0 0 0 0 0 0 0 0 0 0 0 55 0 0 0 0 0 0 46 0 0 0 67 65 0 60 85 0 0 0 0 0 0 0 0 0 0 0 0 0 98 0 0 0 0 87 0 0 0 0 0 0 0 0 0 70 0 0 0 52 0 52 10 0 0 0 0 0 0 0 87 0 0 0 89 0 0 0 0 6 0 0 0 0 0 0 0 0 0 0 0 0 0 0 0 0 0 0 0 0 0 0 0 0 70 0 0 0 0 0 7 0 0 82 44 0 0 48 0 0 0 0
0 0 0 0 0 0 0 0 0 0 0 0 0 50 0 2 0 0 0 0 0 99 0 16 0 0 41 31 0 0 0 0 0 86 0 47 0 25 10 0 0 0 0 0 24 0 0 0 0 0 0 0 0 0 0 0 0 0 0 0 74 85 0 0 0 0 0 0 0 0 0 0 0 35 0 0 0 0 0 0 0 0 0 0 0 0 0 0 3 0 75 0 0 0 0 37 0 94 0 0 0 0 0 0 0 0 0 0 0 0 39 0 0 0 0 0 0 19 0 0 0 0 0 0 38 90 0 82 0 0 61 0 0 74 0 0 33 46 0 6 94 0 0 0 0 0 0 17 0 0
0 95 0 0 0 0 0 0 0 0 0 0 13 0 0 0 0 0 0 10 81 52 0 0 64 0 0 0 0 0 0 29 0 0 0 0 0 0 0 0 0 0 0 30 23 0 0 0 0 0 0 0 0 0 0 0 0 0 26 0 0 0 0 0 0 0 0 0 65 0 0 0 0 0 0 0 0 0 0 0 0 0 4 45 0 0 0 0 0 0 0 0 0 0 0 0 0 0 0 0 0 0 0 67 0 0 2 0 0 0 0 98 57 0 0 0 0 0 0 0 0 0 0 0 0 42 0 0 32 0 0 20 73 0 53 0 0 0 0 16 33 0 0 0 0 20 0 0 0 0
0 0 0 0 94 0 67 0 0 3 0 0 0 97 98 0 0 0 0 0 27 0 0 0 0 0 0 0 0 0 0 16 0 17 0 0 0 0 0 0 0 0 0 77 17 0 20 0 0 0 65 0 0 0 0 0 0 0 0 0 0 0 0 73 0 0 0 0 0 0 0 0 0 0 0 0 0 0 0 0 0 0 0 0 0 0 0 0 0 0 0 0 0 0 0 0 0 0 0 71 0 0 71 0 0 0 0 0 0 0 0 0 0 0 0 0 0 0 0 82 0 0 0 0 0 0 0 0 0 54 0 0 0 0 2 0 0 0 0 0 0 0 5 69 0 46 0 16 0 0
0 0 2 0 97 0 0 0 0 0 0 0 0 0 0 0 0 0 0 0 0 0 0 0 11 0 0 0 0 0 0 0 48 0 0 0 0 0 0 44 73 0 0 0 0 0 0 0 0 0 0 0 96 0 0 95 0 0 0 78 0 0 0 0 0 0 0 0 0 0 0 0 0 0 0 0 0 0 0 0 0 0 0 0 0 4 0 0 0 0 0 0 0 0 76 0 62 61 0 0 7 0 0 0 0 0 0 0 0 99 0 50 0 0 0 42 0 0 79 0 0 82 0 0 0 0 53 0 0 0 0 0 0 0 0 0 51 27 0 0 41 0 0 0 0 0 0 0 0 0
0 0 0 0 0 0 0 0 0 0 0 0 0 0 79 0 0 0 0 0 0 0 0 0 0 0 0 0 0 0 0 11 0 0 78 75 0 0 0 0 0 82 80 0 12 33 8 0 0 0 0 0 0 0 0 0 56 0 0 0 0 0 21 0 0 0 0 0 29 0 0 0 0 17 86 27 0 0 0 12 0 0 0 0 0 0 77 76 0 0 0 0 0 0 0 0 0 0 0 0 0 0 0 0 0 0 0 93 0 0 0 0 0 0 0 0 0 0 0 0 0 0 0 0 4 0 0 0 0 0 0 0 0 0 0 0 0 0 93 0 0 0 0 0 0 0 0 0 0 0
11 0 0 0 0 0 0 0 0 0 0 0 0 0 60 0 0 0 0 0 0 0 0 0 0 0 0 0 0 0 0 0 0 0 0 0 0 0 0 0 0 0 0 0 0 0 82 0 65 0 0 0 0 0 22 61 0 0 0 0 18 0 0 0 0 0 0 0 0 0 0 0 0 0 24 0 0 0 29 0 0 0 0 44 0 0 0 97 18 0 0 98 0 0 26 0 0 0 18 0 0 0 0 0 14 0 0 0 0 0 0 24 26 0 0 0 0 0 0 0 0 0 0 0 0 0 77 0 47 0 0 11 0 0 0 0 0 0 0 2 0 0 0 26 0 0 0 0 0 0
0 0 0 0 0 22 0 0 0 0 0 0 0 0 0 0 0 0 0 5 0 1 0 0 0 0 0 0 0 0 0 0 0 0 0 0 0 0 6 0 38 0 0 0 0 42 0 0 0 0 0 0 0 0 0 0 0 0 0 0 0 0 0 0 21 0 0 0 1 0 0 0 0 0 0 0 0 0 0 0 0 0 0 0 0 10 0 0 0 0 0 0 0 0 0 0 0 0 0 0 0 0 0 0 0 0 0 0 0 0 0 0 0 0 0 0 0 26 0 0 0 0 58 0 0 0 0 0 0 0 0 0 0 0 0 0 0 0 62 0 0 16 0 0 0 0 0 0 0 0
0 0 0 0 0 0 0 0 0 0 0 0 0 6 0 0 0 0 0 0 0 0 0 61 0 0 0 0 0 0 0 0 0 0 0 0 0 0 0 0 0 0 0 0 0 0 0 0 0 0 0 0 0 0 0 0 0 0 0 0 0 0 0 0 0 32 0 0 3 0 47 0 0 0 0 0 0 0 0 0 0 0 0 0 0 0 0 0 0 0 0 0 0 0 0 0 19 0 0 0 0 83 0 0 0 23 0 0 0 14 47 0 0 0 20 5 0 0 0 0 0 63 55 0 59 0 0 1 0 13 0 0 0 31 0 0 0 0 17 0 72 0 0 0 0 0 0 0 0 0
0 0 0 0 0 0 0 0 12 0 0 0 0 0 0 0 0 0 0 0 0 0 3 0 0 0 0 0 23 0 0 0 0 0 0 0 6 0 0 0 0 1 0 0 0 64 0 0 19 0 0 0 0 0 0 0 0 0 0 0 0 0 0 0 0 0 0 0 0 0 12 0 0 0 0 0 65 0 0 0 0 5 0 0 0 0 0 0 0 0 12 81 0 0 0 0 30 1 0 0 0 0 0 0 12 6 0 16 0 0 0 0 0 0 64 4 0 0 0 0 0 0 0 0 0 41 0 0 0 0 0 0 8 0 22 0 0 0 0 0 38 0 0 0 0 0 0 0 0 45
0 0 0 0 0 0 0 0 0 0 0 0 0 0 0 0 0 0 0 0 0 0 44 0 0 0 0 0 0 0 0 55 0 0 0 13 6 0 0 0 0 0 0 0 0 0 0 0 0 0 0 0 0 0 0 0 0 0 0 0 0 0 54 0 0 0 22 0 0 0 0 0 0 0 0 0 0 0 0 0 0 0 20 0 0 0 0 0 0 0 0 0 0 0 21 0 0 0 64 0 0 0 0 0 0 0 0 28 21 0 0 0 4 0 0 0 0 0 0 0 0 0 7 0 0 0 0 0 0 0 0 0 0 0 0 4 0 0 0 0 0 0 0 11 0 61 0 0 0 0
0 19 0 15 0 0 0 2 0 0 0 13 32 0 0 0 45 0 0 0 0 4 0 0 0 0 0 0 0 0 15 0 0 0 0 0 0 0 5 0 0 0 0 14 0 0 0 0 0 0 0 18 0 0 0 0 0 0 0 0 0 0 0 0 0 0 0 0 0 2 0 0 0 0 0 0 0 0 0 14 0 0 0 0 0 3 0 0 0 0 0 0 1 0 0 0 0 0 0 0 0 0 0 0 0 0 0 0 0 0 0 0 0 0 0 0 0 0 0 0 0 0 0 0 0 0 0 0 33 0 0 0 0 27 0 0 0 0 0 0 0 0 0 0 22 0 0 0 0 0
0 15 0 0 0 5 0 0 0 0 0 0 53 0 0 0 0 0 0 0 0 0 0 0 12 0 0 0 0 0 0 0 0 0 0 0 9 0 0 0 0 0 0 0 0 0 0 0 0 0 0 0 43 0 48 0 0 0 0 0 0 14 0 0 0 0 0 0 0 20 0 1 0 0 0 0 0 0 2 42 0 0 0 0 0 46 0 0 2 15 0 0 0 0 0 44 0 0 0 0 0 0 0 0 0 0 0 0 0 0 0 0 0 43 0 0 0 0 0 5 23 0 0 0 0 0 0 0 1 7 0 0 0 0 16 0 0 0 0 0 0 5 0 0 0 0 0 0 0 1
0 0 0 0 0 32 0 0 0 3 0 0 0 32 0 0 0 0 5 0 63 0 0 0 0 13 0 0 0 0 0 0 0 0 0 0 0 0 90 0 6 0 0 0 0 41 0 0 0 0 0 0 0 0 0 0 12 0 0 75 0 0 0 0 0 0 48 0 0 0 0 0 1 0 0 29 0 0 0 0 0 0 0 0 0 0 0 0 0 0 0 0 0 0 0 0 0 0 0 0 0 0 0 0 12 0 0 2 0 1 0 0 0 13 54 0 0 0 0 0 43 0 0 0 0 0 39 0 0 0 0 71 0 0 0 0 0 0 0 0 11 0 0 0 0 0 0 0 0 0
0 0 0 0 0 0 0 17 17 10 0 0 20 0 0 0 0 0 0 0 0 0 0 0 0 0 0 0 0 0 13 0 0 0 54 0 0 0 0 0 0 0 0 0 0 0 27 11 0 0 0 0 35 0 0 0 0 0 0 0 0 0 0 0 0 0 28 0 0 0 19 0 0 0 0 0 0 64 0 13 27 19 0 0 0 0 0 0 0 0 0 0 0 0 0 0 0 3 0 0 0 0 70 8 18 1 25 0 0 0 25 0 0 0 0 0 0 22 0 75 48 0 0 0 0 0 0 51 0 3 28 0 0 0 0 0 24 0 0 0 0 0 0 0 0 0 0 0 56 0
0 0 0 0 5 0 0 0 53 0 0 0 0 0 0 0 0 0 0 0 0 60 0 0 0 0 57 51 0 42 0 0 0 0 0 0 0 0 0 0 0 0 0 0 0 0 0 0 0 0 0 0 0 0 0 0 0 0 0 0 0 0 0 0 0 0 0 0 0 0 0 29 0 0 0 0 0 0 0 49 18 0 0 0 0 0 0 0 0 4 22 0 0 0 0 0 0 0 0 0 0 23 0 0 0 0 0 0 0 41 0 0 0 5 0 63 0 0 4 0 77 3 0 0 0 0 0 0 16 0 0 0 0 0 0 7 0 49 0 0 0 0 0 16 0 29 0 0 0 0
32 0 25 0 0 0 0 0 0 0 0 52 0 0 0 0 0 0 0 1 0 0 7 0 0 36 0 0 72 0 20 0 0 0 0 0 0 0 0 0 0 0 0 0 0 0 0 0 0 60 0 57 38 0 0 30 0 29 13 0 0 0 0 0 0 0 0 24 0 0 0 73 58 0 0 0 0 0 0 0 0 0 0 0 0 0 0 0 49 0 0 3 0 0 15 40 0 0 4 14 0 23 0 0 0 0 57 0 54 0 0 0 0 0 0 0 0 0 0 0 0 49 0 0 0 0 0 0 0 0 0 0 0 0 0 20 0 0 0 0 0 0 0 0 3 0 0 0 0 0
0 0 0 0 0 0 0 11 51 10 0 0 0 0 0 0 0 15 0 81 15 27 0 0 0 0 0 0 0 0 0 22 20 12 0 0 0 24 0 0 0 66 14 0 0 22 0 75 16 0 8 20 0 23 0 0 0 0 0 0 0 0 0 27 0 0 0 9 0 0 0 0 0 0 0 0 0 0 0 0 0 0 0 0 33 0 0 9 0 22 0 0 0 0 0 23 0 0 0 0 0 0 0 0 0 0 0 0 4 0 0 0 0 0 0 0 30 6 0 0 6 0 0 9 28 0 0 0 0 0 0 0 0 34 0 0 0 0 0 39 66 0 0 0 0 0 0 0 0 4
0 16 66 0 0 0 0 0 0 31 0 0 0 0 0 0 31 0 0 0 0 0 0 0 0 0 0 0 0 0 0 0 0 0 0 0 0 4 0 66 0 0 0 0 0 0 0 0 0 0 0 0 0 2 0 0 0 26 0 0 0 0 0 1 0 0 17 0 0 0 0 0 0 0 0 8 41 0 0 0 0 21 72 0 0 0 0 0 0 0 0 15 0 0 0 24 0 0 0 0 0 0 0 0 85 6 0 10 0 0 0 0 0 0 68 0 0 0 0 0 0 0 0 0 0 0 0 0 0 0 0 54 0 0 0 0 0 0 0 0 0 23 0 0 0 0 0 0 0 0
0 0 0 0 19 0 20 0 0 0 0 0 0 0 0 0 0 0 0 17 0 0 0 0 0 0 0 0 0 0 0 0 0 0 0 0 0 0 0 0 0 0 0 31 3 40 0 0 0 15 0 0 6 0 0 71 0 0 59 0 0 13 0 0 0 0 0 0 0 0 0 14 0 70 0 0 0 0 0 0 69 0 0 0 0 0 0 0 0 0 0 0 0 0 0 0 0 20 0 0 0 0 0 0 81 0 0 0 0 23 0 5 0 25 0 0 0 0 0 0 6 0 13 29 0 0 0 0 0 0 0 0 0 0 0 0 0 0 0 0 0 0 11 0 0 0 0 69 0 0
0 0 0 39 0 0 0 0 0 0 0 0 0 0 0 0 0 0 59 0 44 76 0 0 0 0 12 0 0 0 0 0 0 0 0 0 0 0 0 14 0 0 0 0 0 0 1 0 0 0 19 13 0 20 44 0 0 0 0 0 0 0 0 0 0 0 0 0 17 0 0 0 0 0 0 0 0 0 0 0 0 0 0 13 0 0 0 48 0 22 6 0 0 0 0 0 0 0 69 0 0 0 76 0 0 0 0 1 0 0 0 0 0 0 0 0 0 0 0 0 0 0 0 0 0 0 0 0 0 0 0 0 20 0 0 0 0 0 0 0 0 52 17 0 0 16 0 0 0 0
0 0 0 0 0 0 0 0 0 0 0 0 0 32 0 1 0 0 0 0 0 68 0 13 0 0 19 20 0 0 0 0 0 7 0 22 0 23 6 0 0 0 0 0 13 0 0 0 0 0 0 0 0 0 0 0 0 0 0 0 39 1 0 0 0 0 0 0 0 0 0 0 0 26 0 0 0 0 0 0 0 0 0 0 0 0 0 0 2 0 35 0 0 0 0 32 0 62 0 0 0 0 0 0 0 0 0 0 0 0 37 0 0 0 0 0 0 8 0 0 0 0 0 0 22 73 0 43 0 0 26 0 0 7 0 0 4 17 0 4 82 0 0 0 0 0 0 11 0 0
0 88 0 0 0 0 0 0 0 0 0 0 3 0 0 0 0 0 0 2 25 40 0 0 11 0 0 0 0 0 0 16 0 0 0 0 0 0 0 0 0 0 0 28 15 0 0 0 0 0 0 0 0 0 0 0 0 0 16 0 0 0 0 0 0 0 0 0 14 0 0 0 0 0 0 0 0 0 0 0 0 0 0 0 0 0 0 0 0 0 0 0 0 0 0 0 0 0 0 0 0 0 0 7 0 0 0 0 0 0 0 62 4 0 0 0 0 0 0 0 0 0 0 0 0 28 0 0 19 0 0 18 28 0 26 0 0 0 0 1 6 0 0 0 0 4 0 0 0 0
0 0 0 0 5 0 56 0 0 1 0 0 0 84 87 0 0 0 0 0 20 0 0 0 0 0 0 0 0 0 0 12 0 12 0 0 0 0 0 0 0 0 0 17 9 0 17 0 0 0 27 0 0 0 0 0 0 0 0 0 0 0 0 27 0 0 0 0 0 0 0 0 0 0 0 0 0 0 0 0 0 0 0 0 0 0 0 0 0 0 0 0 0 0 0 0 0 0 0 58 0 0 20 0 0 0 0 0 0 0 0 0 0 0 0 0 0 0 0 81 0 0 0 0 0 0 0 0 0 1 0 0 0 0 0 0 0 0 0 0 0 0 1 46 0 34 0 2 0 0
0 0 0 0 39 0 0 0 0 0 0 0 0 0 0 0 0 0 0 0 0 0 0 0 2 0 0 0 0 0 0 0 12 0 0 0 0 0 0 9 45 0 0 0 0 0 0 0 0 0 0 0 47 0 0 17 0 0 0 63 0 0 0 0 0 0 0 0 0 0 0 0 0 0 0 0 0 0 0 0 0 0 0 0 0 3 0 0 0 0 0 0 0 0 23 0 5 39 0 0 2 0 0 0 0 0 0 0 0 61 0 43 0 0 0 38 0 0 0 0 0 2 0 0 0 0 17 0 0 0 0 0 0 0 0 0 10 6 0 0 25 0 0 0 0 0 0 0 0 0
0 0 0 0 0 0 0 0 0 0 0 0 0 0 69 0 0 0 0 0 0 0 0 0 0 0 0 0 0 0 0 6 0 0 15 20 0 0 0 0 0 40 10 0 1 5 4 0 0 0 0 0 0 0 0 0 41 0 0 0 0 0 8 0 0 0 0 0 3 0 0 0 0 15 76 13 0 0 0 10 0 0 0 0 0 0 22 73 0 0 0 0 0 0 0 0 0 0 0 0 0 0 0 0 0 0 0 16 0 0 0 0 0 0 0 0 0 0 0 0 0 0 0 0 1 0 0 0 0 0 0 0 0 0 0 0 0 0 29 0 0 0 0 0 0 0 0 0 0 0
9 0 0 0 0 0 0 0 0 0 0 0 0 0 21 0 0 0 0 0 0 0 0 0 0 0 0 0 0 0 0 0 0 0 0 0 0 0 0 0 0 0 0 0 0 0 73 0 54 0 0 0 0 0 8 46 0 0 0 0 17 0 0 0 0 0 0 0 0 0 0 0 0 0 11 0 0 0 9 0 0 0 0 12 0 0 0 82 11 0 0 8 0 0 16 0 0 0 15 0 0 0 0 0 3 0 0 0 0 0 0 8 7 0 0 0 0 0 0 0 0 0 0 0 0 0 38 0 45 0 0 3 0 0 0 0 0 0 0 1 0 0 0 15 0 0 0 0 0 0
